words_hard_train/2483.qaiger
aag 91 16 0 1 75
2
4
8
12
14
18
24
26
32
34
38
42
46
50
54
58
183
6 2 4
10 6 8
16 13 15
20 16 19
22 10 20
28 25 26
30 22 28
36 32 34
40 36 38
44 40 42
48 44 46
52 48 50
56 52 54
60 56 59
62 57 58
64 61 63
66 31 65
68 20 3
70 21 2
72 69 71
74 41 43
76 75 45
78 72 77
80 39 18
82 81 17
84 82 37
86 32 13
88 87 14
90 88 35
92 84 91
94 37 39
96 95 41
98 17 18
100 99 21
102 96 100
104 93 103
106 73 76
108 104 107
110 79 109
112 71 9
114 70 8
116 113 115
118 45 47
120 119 49
122 116 121
124 110 123
126 115 5
128 10 21
130 127 129
132 49 51
134 133 53
136 131 134
138 125 137
140 117 120
142 138 141
144 130 135
146 143 145
148 129 25
150 128 24
152 149 151
154 53 55
156 155 57
158 153 157
160 146 159
162 152 156
164 161 163
166 66 164
168 149 27
170 28 11
172 169 171
174 167 172
176 64 165
178 175 177
180 30 176
182 179 181
i0 2 y2[3]
i1 2 y2[5]
i2 2 y2[4]
i3 2 y2[0]
i4 2 y2[1]
i5 2 y2[2]
i6 2 y2[6]
i7 2 y2[7]
i8 1 x1[7]
i9 1 x1[6]
i10 1 x1[5]
i11 1 x1[4]
i12 1 x1[3]
i13 1 x1[2]
i14 1 x1[1]
i15 1 x1[0]
o0 bv[0]
c
simplified
  >
    add
      -56
      2 y2
    add
      1
      reverse
        1 x1
