words_hard_train/2483.qaiger.qdimacs
p cnf 91 226
a 16 17 19 21 23 25 27 29 0
e 1 2 3 4 5 6 7 8 9 10 11 12 13 14 15 18 20 22 24 26 28 30 31 32 33 34 35 36 37 38 39 40 41 42 43 44 45 46 47 48 49 50 51 52 53 54 55 56 57 58 59 60 61 62 63 64 65 66 67 68 69 70 71 72 73 74 75 76 77 78 79 80 81 82 83 84 85 86 87 88 89 90 91 0
-1 -2 3 0
1 -3 0
2 -3 0
-3 -4 5 0
3 -5 0
4 -5 0
6 7 8 0
-6 -8 0
-7 -8 0
-8 9 10 0
8 -10 0
-9 -10 0
-5 -10 11 0
5 -11 0
10 -11 0
12 -13 14 0
-12 -14 0
13 -14 0
-11 -14 15 0
11 -15 0
14 -15 0
-16 -17 18 0
16 -18 0
17 -18 0
-18 -19 20 0
18 -20 0
19 -20 0
-20 -21 22 0
20 -22 0
21 -22 0
-22 -23 24 0
22 -24 0
23 -24 0
-24 -25 26 0
24 -26 0
25 -26 0
-26 -27 28 0
26 -28 0
27 -28 0
-28 29 30 0
28 -30 0
-29 -30 0
28 -29 31 0
-28 -31 0
29 -31 0
30 31 32 0
-30 -32 0
-31 -32 0
15 32 33 0
-15 -33 0
-32 -33 0
-10 1 34 0
10 -34 0
-1 -34 0
10 -1 35 0
-10 -35 0
1 -35 0
34 35 36 0
-34 -36 0
-35 -36 0
20 21 37 0
-20 -37 0
-21 -37 0
37 22 38 0
-37 -38 0
-22 -38 0
-36 38 39 0
36 -39 0
-38 -39 0
19 -9 40 0
-19 -40 0
9 -40 0
40 8 41 0
-40 -41 0
-8 -41 0
-41 18 42 0
41 -42 0
-18 -42 0
-16 6 43 0
16 -43 0
-6 -43 0
43 -7 44 0
-43 -44 0
7 -44 0
-44 17 45 0
44 -45 0
-17 -45 0
-42 45 46 0
42 -46 0
-45 -46 0
18 19 47 0
-18 -47 0
-19 -47 0
47 20 48 0
-47 -48 0
-20 -48 0
8 -9 49 0
-8 -49 0
9 -49 0
49 10 50 0
-49 -50 0
-10 -50 0
-48 -50 51 0
48 -51 0
50 -51 0
46 51 52 0
-46 -52 0
-51 -52 0
36 -38 53 0
-36 -53 0
38 -53 0
-52 53 54 0
52 -54 0
-53 -54 0
39 54 55 0
-39 -55 0
-54 -55 0
35 4 56 0
-35 -56 0
-4 -56 0
-35 -4 57 0
35 -57 0
4 -57 0
56 57 58 0
-56 -58 0
-57 -58 0
22 23 59 0
-22 -59 0
-23 -59 0
59 24 60 0
-59 -60 0
-24 -60 0
-58 60 61 0
58 -61 0
-60 -61 0
-55 61 62 0
55 -62 0
-61 -62 0
57 2 63 0
-57 -63 0
-2 -63 0
-5 10 64 0
5 -64 0
-10 -64 0
63 64 65 0
-63 -65 0
-64 -65 0
24 25 66 0
-24 -66 0
-25 -66 0
66 26 67 0
-66 -67 0
-26 -67 0
65 -67 68 0
-65 -68 0
67 -68 0
62 68 69 0
-62 -69 0
-68 -69 0
58 -60 70 0
-58 -70 0
60 -70 0
-69 70 71 0
69 -71 0
-70 -71 0
-65 67 72 0
65 -72 0
-67 -72 0
71 72 73 0
-71 -73 0
-72 -73 0
64 12 74 0
-64 -74 0
-12 -74 0
-64 -12 75 0
64 -75 0
12 -75 0
74 75 76 0
-74 -76 0
-75 -76 0
26 27 77 0
-26 -77 0
-27 -77 0
77 28 78 0
-77 -78 0
-28 -78 0
76 78 79 0
-76 -79 0
-78 -79 0
-73 79 80 0
73 -80 0
-79 -80 0
-76 -78 81 0
76 -81 0
78 -81 0
80 81 82 0
-80 -82 0
-81 -82 0
-33 -82 83 0
33 -83 0
82 -83 0
74 13 84 0
-74 -84 0
-13 -84 0
-14 5 85 0
14 -85 0
-5 -85 0
84 85 86 0
-84 -86 0
-85 -86 0
83 -86 87 0
-83 -87 0
86 -87 0
-32 82 88 0
32 -88 0
-82 -88 0
87 88 89 0
-87 -89 0
-88 -89 0
-15 -88 90 0
15 -90 0
88 -90 0
89 90 91 0
-89 -91 0
-90 -91 0
-91 0
